
Log started (V11.0.0) Sun Apr 13 14:09:32 2008

Tried aggregator 1 time.
Reduced MIP has 250 rows, 10001 columns, and 20050 nonzeros.
Presolve time =    0.08 sec.
Clique table members: 200.
MIP emphasis: balance optimality and feasibility.
MIP search method: dynamic search.
Parallel mode: none, using 1 thread.
Root relaxation solution time =    0.30 sec.

        Nodes                                         Cuts/
   Node  Left     Objective  IInf  Best Integer     Best Node    ItCnt     Gap

*     0+    0                         9976.0000       10.5884     1043   99.89%
*     0+    0                           18.0000       10.5884     1043   41.18%
      0     0       11.0000    60       18.0000      Fract: 2     1058   38.89%
*     0+    0                           17.0000       11.0000     1058   35.29%
      0     0       11.0000    67       17.0000   Impl Bds: 1     1066   35.29%
*     0+    0                           16.0000       11.0000     1066   31.25%
      0     0       11.0000    69       16.0000   Impl Bds: 1     1083   31.25%
*     0+    0                           15.0000       11.0000     1083   26.67%
*     0+    0                           14.0000       11.0000     1086   21.43%

Repeating presolve.
Tried aggregator 1 time.
MIP Presolve eliminated 0 rows and 8618 columns.
Aggregator did 3 substitutions.
Reduced MIP has 247 rows, 1380 columns, and 2808 nonzeros.
Tried aggregator 1 time.
Represolve time =    0.06 sec.
Clique table members: 658.
MIP emphasis: balance optimality and feasibility.
MIP search method: dynamic search.
Parallel mode: none, using 1 thread.
Root relaxation solution time =    0.03 sec.

        Nodes                                         Cuts/
   Node  Left     Objective  IInf  Best Integer     Best Node    ItCnt     Gap

      0     0       11.0000    78       14.0000       11.0000      413   21.43%
*     0+    0                           13.0000       11.0000      413   15.38%
      0     2       11.0000    79       13.0000       11.0000      413   15.38%
    100    83       12.0000    54       13.0000       12.0000     5780    7.69%
    200   173       12.0000    53       13.0000       12.0000    14587    7.69%
    300   239       12.0000   101       13.0000       12.0000    25877    7.69%
    400   323       12.0000    84       13.0000       12.0000    43280    7.69%
*   424     0      integral     0       12.0000       12.0000    49551    0.00%

Cover cuts applied:  341
Implied bound cuts applied:  2
Gomory fractional cuts applied:  3

Solution pool: 8 solutions saved.

MIP - Integer optimal solution:  Objective = 1.2000000000e+001
Solution time =   11.28 sec.  Iterations = 49551  Nodes = 425


Incumbent solution
Variable Name           Solution Value
Cmax                         12.000000
X_1_37                        1.000000
X_2_33                        1.000000
X_3_39                        1.000000
X_4_36                        1.000000
X_5_23                        1.000000
X_6_14                        1.000000
X_7_1                         1.000000
X_8_5                         1.000000
X_9_39                        1.000000
X_10_37                       1.000000
X_11_19                       0.000000
X_11_25                       1.000000
X_12_36                       1.000000
X_13_44                       1.000000
X_14_2                        1.000000
X_14_32                      -0.000000
X_15_45                       1.000000
X_16_29                       1.000000
X_17_35                       0.000000
X_17_44                       1.000000
X_18_5                        1.000000
X_19_5                        1.000000
X_20_37                       1.000000
X_21_5                        1.000000
X_22_3                        1.000000
X_23_9                        1.000000
X_24_24                       1.000000
X_24_25                       0.000000
X_25_41                       1.000000
X_26_30                       1.000000
X_27_22                       1.000000
X_28_17                       1.000000
X_29_38                       1.000000
X_30_21                       1.000000
X_31_15                       1.000000
X_32_22                       1.000000
X_33_23                       1.000000
X_34_17                       1.000000
X_35_18                       1.000000
X_36_1                        1.000000
X_37_9                        1.000000
X_38_33                       1.000000
X_39_26                       1.000000
X_40_11                       1.000000
X_41_20                      -0.000000
X_41_27                       0.000000
X_41_35                       0.000000
X_41_42                       1.000000
X_42_49                       1.000000
X_43_4                        1.000000
X_43_31                      -0.000000
X_44_31                       1.000000
X_45_28                       1.000000
X_46_28                       1.000000
X_47_27                       1.000000
X_48_36                       1.000000
X_48_42                       0.000000
X_49_43                       1.000000
X_50_34                       1.000000
X_51_44                       1.000000
X_52_41                       1.000000
X_53_47                       1.000000
X_54_19                       1.000000
X_55_38                       1.000000
X_56_10                       1.000000
X_57_12                       1.000000
X_58_30                       1.000000
X_59_15                       1.000000
X_60_11                       1.000000
X_61_43                       1.000000
X_62_6                        1.000000
X_63_31                       1.000000
X_63_33                       0.000000
X_64_21                       1.000000
X_65_1                        0.000000
X_65_13                       1.000000
X_65_30                       0.000000
X_66_31                       1.000000
X_67_9                        1.000000
X_68_49                       1.000000
X_69_6                        1.000000
X_70_27                       1.000000
X_71_13                       1.000000
X_72_31                       0.000000
X_72_32                       1.000000
X_73_18                       1.000000
X_74_43                       1.000000
X_75_18                       1.000000
X_76_12                       0.000000
X_76_23                       1.000000
X_77_10                       1.000000
X_78_13                       0.000000
X_78_33                       1.000000
X_79_40                       1.000000
X_80_23                       1.000000
X_81_38                       1.000000
X_82_24                       0.000000
X_82_50                       1.000000
X_83_31                       1.000000
X_83_42                       0.000000
X_84_50                       1.000000
X_85_44                       1.000000
X_86_12                       1.000000
X_87_4                        1.000000
X_88_10                       1.000000
X_89_47                       1.000000
X_90_14                       1.000000
X_91_47                       1.000000
X_92_1                        1.000000
X_93_46                       1.000000
X_94_5                        0.000000
X_94_30                       1.000000
X_95_16                       1.000000
X_96_3                        1.000000
X_97_42                       1.000000
X_98_48                       1.000000
X_99_15                       1.000000
X_100_4                       1.000000
X_101_33                      1.000000
X_102_48                      1.000000
X_103_24                      1.000000
X_104_50                      1.000000
X_105_24                      1.000000
X_106_15                      1.000000
X_107_8                       1.000000
X_108_20                      1.000000
X_109_25                      1.000000
X_110_40                      1.000000
X_111_33                      1.000000
X_112_2                      -0.000000
X_112_20                      1.000000
X_113_32                      1.000000
X_114_9                       1.000000
X_115_20                      1.000000
X_116_2                       1.000000
X_117_34                      1.000000
X_118_35                      1.000000
X_119_43                      1.000000
X_120_18                      1.000000
X_121_31                      1.000000
X_122_18                      1.000000
X_123_47                      1.000000
X_124_11                      1.000000
X_125_3                       1.000000
X_126_7                       1.000000
X_127_46                      1.000000
X_128_45                      1.000000
X_129_2                       1.000000
X_130_31                      1.000000
X_131_31                      1.000000
X_132_12                      1.000000
X_132_44                      0.000000
X_133_7                       0.000000
X_133_19                      1.000000
X_134_8                       1.000000
X_135_48                      1.000000
X_136_1                       1.000000
X_137_9                       1.000000
X_138_49                      1.000000
X_139_7                       1.000000
X_139_31                      0.000000
X_140_17                      1.000000
X_140_42                      0.000000
X_141_21                      1.000000
X_142_32                      1.000000
X_143_6                       1.000000
X_144_22                      1.000000
X_145_35                      1.000000
X_146_30                      1.000000
X_147_36                      1.000000
X_148_26                      1.000000
X_149_16                      1.000000
X_149_33                      0.000000
X_149_40                     -0.000000
X_150_27                      1.000000
X_150_35                      0.000000
X_151_41                      1.000000
X_152_7                       0.000000
X_152_25                      1.000000
X_153_5                       1.000000
X_154_1                       1.000000
X_154_19                      0.000000
X_155_4                       1.000000
X_155_32                      0.000000
X_156_8                       1.000000
X_157_48                      1.000000
X_158_30                      1.000000
X_159_9                       1.000000
X_160_43                      1.000000
X_161_4                       0.000000
X_161_35                      1.000000
X_162_16                      1.000000
X_163_34                      1.000000
X_164_38                      1.000000
X_165_30                      1.000000
X_166_46                      1.000000
X_167_5                       1.000000
X_167_25                      0.000000
X_168_11                      1.000000
X_169_41                      1.000000
X_170_2                       1.000000
X_171_2                       1.000000
X_172_9                       1.000000
X_173_21                      1.000000
X_174_2                       1.000000
X_175_20                      1.000000
X_175_50                      0.000000
X_176_24                      1.000000
X_177_20                      1.000000
X_177_42                      0.000000
X_178_50                      1.000000
X_179_11                      1.000000
X_180_41                      1.000000
X_181_13                      1.000000
X_182_41                      1.000000
X_183_17                      1.000000
X_184_17                      1.000000
X_185_14                      1.000000
X_186_20                      0.000000
X_186_32                      1.000000
X_187_27                      1.000000
X_188_18                      1.000000
X_189_18                      1.000000
X_189_23                      0.000000
X_190_27                      1.000000
X_191_48                      1.000000
X_192_36                      1.000000
X_193_45                      1.000000
X_194_18                      0.000000
X_194_42                      1.000000
X_195_22                      1.000000
X_196_3                       1.000000
X_197_37                      1.000000
X_198_35                      1.000000
X_199_28                      1.000000
X_200_12                      1.000000
All other variables in the range 1-10001 are 0.
